
Gurobi 11.0.1 (win64) logging started Wed May 15 12:33:43 2024

Set parameter LogFile to value "output/solver_log45.txt"
Gurobi Optimizer version 11.0.1 build v11.0.1rc0 (win64 - Windows 11.0 (22631.2))

CPU model: 11th Gen Intel(R) Core(TM) i7-1165G7 @ 2.80GHz, instruction set [SSE2|AVX|AVX2|AVX512]
Thread count: 4 physical cores, 8 logical processors, using up to 8 threads

Optimize a model with 2525 rows, 576 columns and 46751 nonzeros
Model fingerprint: 0x537e0420
Variable types: 248 continuous, 328 integer (328 binary)
Coefficient statistics:
  Matrix range     [4e-01, 1e+05]
  Objective range  [1e+00, 1e+02]
  Bounds range     [1e+00, 1e+00]
  RHS range        [1e-02, 1e+05]

User MIP start produced solution with objective 77336.5 (0.02s)
User MIP start produced solution with objective 77336.5 (0.02s)
Loaded user MIP start with objective 77336.5

Presolve removed 224 rows and 193 columns
Presolve time: 0.07s
Presolved: 2301 rows, 383 columns, 44483 nonzeros
Variable types: 228 continuous, 155 integer (152 binary)

Root relaxation: objective 7.739559e+04, 507 iterations, 0.05 seconds (0.07 work units)

    Nodes    |    Current Node    |     Objective Bounds      |     Work
 Expl Unexpl |  Obj  Depth IntInf | Incumbent    BestBd   Gap | It/Node Time

     0     0 77395.5938    0    4 77336.4605 77395.5938  0.08%     -    0s
     0     0 77395.5938    0    4 77336.4605 77395.5938  0.08%     -    0s
*    0     0               0    77395.593792 77395.5938  0.00%     -    0s

Explored 1 nodes (1134 simplex iterations) in 0.67 seconds (0.63 work units)
Thread count was 8 (of 8 available processors)

Solution count 3: 77395.6 77395.6 77336.5 

Optimal solution found (tolerance 1.00e-04)
Best objective 7.739559379171e+04, best bound 7.739559379171e+04, gap 0.0000%
